************************************************************************
file with basedata            : j60_63.bas
initial value random generator: 1416725556
************************************************************************
projects                      :  1
jobs (incl. supersource/sink ):  62
horizon                       :  334
RESOURCES
  - renewable                 :  4   R
  - nonrenewable              :  0   N
  - doubly constrained        :  0   D
************************************************************************
PROJECT INFORMATION:
pronr.  #jobs rel.date duedate tardcost  MPM-Time
    1     60      0       68       12       68
************************************************************************
PRECEDENCE RELATIONS:
jobnr.    #modes  #successors   successors
   1        1          3           2   3   4
   2        1          2           5  48
   3        1          3           6  13  14
   4        1          2           8  16
   5        1          3           7  15  34
   6        1          3           7  10  16
   7        1          3          11  38  53
   8        1          2           9  20
   9        1          3          22  25  49
  10        1          3          12  19  21
  11        1          3          18  42  47
  12        1          3          17  28  30
  13        1          3          19  28  48
  14        1          3          23  24  25
  15        1          3          27  53  55
  16        1          3          18  26  49
  17        1          3          31  32  50
  18        1          3          45  56  57
  19        1          2          27  32
  20        1          3          27  28  40
  21        1          2          36  39
  22        1          3          26  30  48
  23        1          3          29  36  39
  24        1          3          31  33  46
  25        1          3          32  41  56
  26        1          3          31  45  52
  27        1          2          38  57
  28        1          2          35  41
  29        1          2          43  55
  30        1          3          37  41  44
  31        1          2          37  42
  32        1          1          44
  33        1          3          34  35  40
  34        1          2          37  43
  35        1          1          44
  36        1          3          40  43  46
  37        1          3          38  39  51
  38        1          1          54
  39        1          1          60
  40        1          3          42  50  52
  41        1          2          46  47
  42        1          2          59  60
  43        1          3          49  50  51
  44        1          2          45  47
  45        1          1          55
  46        1          1          58
  47        1          1          61
  48        1          2          51  52
  49        1          1          60
  50        1          1          58
  51        1          3          53  54  59
  52        1          1          54
  53        1          1          57
  54        1          1          56
  55        1          1          58
  56        1          1          61
  57        1          1          61
  58        1          1          59
  59        1          1          62
  60        1          1          62
  61        1          1          62
  62        1          0        
************************************************************************
REQUESTS/DURATIONS:
jobnr. mode duration  R 1  R 2  R 3  R 4
------------------------------------------------------------------------
  1      1     0       0    0    0    0
  2      1     5       3    9    4    1
  3      1     7       1    7    5    4
  4      1     6       5    6    2    9
  5      1     6       1    5   10    4
  6      1    10       1    2    8   10
  7      1     2       1    8    4   10
  8      1     2       2    7    8   10
  9      1     8       5    7    8    4
 10      1     4       9    5    1    9
 11      1     4       4    5    1    9
 12      1     5       2    9    8    3
 13      1     8       7    8    8    5
 14      1     6       9    4    4    7
 15      1     6       2    6    2    6
 16      1     6      10    2    6    5
 17      1     3       1    6    3    1
 18      1     5       8   10   10   10
 19      1     6       2   10    8    8
 20      1     2       6    3    3    2
 21      1    10       2    2    9    3
 22      1     7       8    3    3    7
 23      1     4       2    8    8    8
 24      1     4       5    6    7    1
 25      1     2       1    4    9    3
 26      1     1       4    7    7   10
 27      1     7       6    1    9    5
 28      1     7       8    9    3    4
 29      1     6       4    1    1   10
 30      1    10       8    5    9    7
 31      1     7      10    7    3    4
 32      1    10       1    9    1    7
 33      1     6       4    2    2    2
 34      1     3       7    8    9    1
 35      1     6       8    5   10    9
 36      1     6       4    5    4    2
 37      1     7       1    2   10    4
 38      1     8       7    1   10    5
 39      1     5       9    1    1    3
 40      1     4       8    2    6    4
 41      1     8      10    4    2   10
 42      1     9       5    9    4    5
 43      1     5      10    1    3    2
 44      1     5       3    5    3   10
 45      1     2       8    5    9    3
 46      1     2       4    6    7    8
 47      1     6       6    7    3    7
 48      1     8       2    4    4    6
 49      1     1       1    2    4    4
 50      1     6       9    1    1    7
 51      1     8       3    1    1    3
 52      1     6       6   10    2    8
 53      1     9       5    5   10    6
 54      1    10       6    3    4    2
 55      1     6      10    1    1    9
 56      1     3       5    7   10    5
 57      1     2       8    9    1    4
 58      1     1       7    4    6    9
 59      1     4       5    1    3    5
 60      1     8       3    2   10    9
 61      1     4       8   10    8    8
 62      1     0       0    0    0    0
************************************************************************
RESOURCEAVAILABILITIES:
  R 1  R 2  R 3  R 4
   43   38   42   39
************************************************************************
